c preprocessed version of pr439.tsp, 432 vertices, 1277 edges
p td 432 1277
1 0
0 184
0 186
0 185
0 3
0 2
1 2
1 186
1 4
1 188
1 189
1 190
2 3
2 4
4 3
3 6
3 185
3 5
4 5
4 8
4 9
4 19
5 6
5 7
5 8
7 6
175 6
6 185
8 7
9 7
10 7
176 7
7 175
8 9
9 10
9 11
9 19
11 10
177 10
12 10
10 176
11 12
11 13
11 14
11 19
13 12
15 12
16 12
55 12
177 12
14 13
13 15
14 15
14 19
15 16
15 17
15 18
15 19
17 16
16 55
16 54
18 17
20 17
52 17
17 53
17 54
19 18
18 20
20 21
20 52
20 22
20 23
22 21
24 21
21 50
21 51
21 49
21 48
21 52
23 22
22 24
23 24
23 25
23 26
23 27
23 28
23 29
23 30
25 24
46 24
24 48
26 25
45 25
25 46
27 26
42 26
44 26
26 45
28 27
39 27
27 40
27 41
27 42
29 28
38 28
28 39
30 29
29 38
29 428
31 30
35 30
30 428
31 32
31 33
31 34
31 35
31 93
31 94
31 130
33 32
32 92
32 427
32 93
34 33
33 85
33 90
33 91
33 427
35 34
36 34
66 34
77 34
34 85
35 36
35 428
37 36
428 36
36 65
36 66
38 37
39 37
40 37
37 65
37 428
38 39
38 428
39 40
41 40
40 65
40 64
42 41
43 41
41 63
41 62
41 47
41 64
42 43
42 44
44 43
45 43
46 43
43 47
44 45
45 46
46 47
46 48
48 47
47 62
47 61
49 48
60 48
48 61
50 49
49 58
49 59
49 60
51 50
53 50
50 58
50 57
51 52
51 53
52 53
54 53
53 57
55 54
54 57
54 56
55 56
55 179
55 177
57 56
56 170
56 168
56 179
58 57
57 168
59 58
58 168
58 167
60 59
61 59
59 167
60 61
62 61
61 167
61 166
62 63
62 166
64 63
71 63
162 63
63 163
63 164
63 165
63 166
65 64
64 70
64 71
66 65
68 65
65 69
65 70
66 67
66 68
66 77
68 67
69 67
67 74
67 75
67 76
67 77
68 69
70 69
69 73
69 74
71 70
70 72
70 73
71 72
71 162
73 72
72 161
72 81
72 162
74 73
73 81
75 74
74 81
76 75
78 75
75 80
75 81
77 76
76 78
77 78
77 79
77 85
78 79
78 80
80 79
79 84
79 83
79 85
81 80
80 83
81 82
81 155
81 83
81 161
83 82
84 82
87 82
82 157
82 155
159 82
158 82
83 84
85 84
84 87
84 86
85 86
85 90
86 87
86 88
86 89
86 90
88 87
87 115
159 87
89 88
100 88
88 115
90 89
89 100
89 99
91 90
90 99
92 91
95 91
427 91
91 98
91 99
93 92
94 92
92 95
92 427
93 94
94 95
94 96
94 127
94 128
94 130
95 96
95 97
95 98
97 96
106 96
96 110
96 108
96 127
98 97
103 97
97 104
97 106
99 98
98 103
99 100
99 101
99 102
99 103
101 100
100 114
100 115
102 101
101 114
103 102
104 102
105 102
102 113
102 114
103 104
104 105
104 106
106 105
107 105
105 113
106 107
106 108
108 107
109 107
107 113
107 112
108 109
108 110
110 109
109 112
109 111
110 111
110 126
110 127
112 111
111 125
111 126
113 112
123 112
112 124
112 125
114 113
122 113
113 123
115 114
116 114
114 122
115 116
159 115
116 117
116 122
159 116
117 118
122 117
121 117
120 117
117 119
159 117
119 118
118 151
159 118
160 118
120 119
119 150
119 151
424 119
121 120
120 145
425 120
424 120
122 121
123 121
143 121
142 121
121 145
122 123
123 124
123 143
125 124
135 124
136 124
124 137
124 144
124 143
126 125
129 125
125 135
125 132
125 131
127 126
128 126
126 129
127 128
128 129
128 130
130 129
129 131
130 131
130 133
131 132
131 133
133 132
132 135
133 134
133 275
133 135
133 274
133 327
133 312
135 134
134 138
134 273
134 136
134 275
135 136
136 137
136 138
137 138
137 139
137 144
139 138
138 272
138 273
140 139
144 139
139 270
139 271
139 272
141 140
140 269
140 270
140 144
142 141
268 141
141 267
141 269
141 144
143 142
142 145
142 268
142 144
143 144
145 146
145 268
425 145
146 147
268 146
267 146
146 266
146 265
425 146
147 148
147 263
147 264
147 265
425 147
426 147
148 149
148 262
148 263
426 148
424 148
150 149
149 260
149 261
149 262
424 149
151 150
150 260
424 150
152 151
248 151
151 259
151 260
160 151
152 153
152 248
152 247
152 420
160 152
158 152
154 153
153 241
153 420
153 246
153 245
158 153
155 154
161 154
242 154
154 156
154 241
158 154
155 156
155 157
155 161
156 157
158 156
158 157
159 158
160 158
159 160
162 161
161 244
161 242
161 163
162 163
164 163
163 244
165 164
164 244
164 243
166 165
165 243
167 166
166 243
166 241
166 240
166 239
166 238
168 167
167 238
168 169
168 238
168 170
170 169
230 169
169 238
169 237
169 236
171 170
179 170
178 170
180 170
195 170
170 194
170 217
170 229
170 230
172 171
187 171
171 181
171 180
171 195
171 193
171 188
173 172
184 172
172 181
172 187
172 186
174 173
173 181
173 182
173 184
175 174
174 182
174 183
174 184
176 175
175 180
175 183
175 184
175 185
177 176
176 180
176 178
177 178
177 179
179 178
178 180
181 180
182 180
183 180
181 182
182 183
185 184
184 186
187 186
186 188
187 188
188 189
188 192
188 193
189 190
189 192
190 191
190 192
190 202
416 190
192 191
191 202
191 200
191 193
192 193
193 194
193 196
193 195
193 198
193 199
193 200
195 194
194 196
194 216
194 217
196 197
196 198
196 214
196 215
196 216
198 197
199 197
214 197
197 423
197 422
197 421
198 199
200 199
204 199
199 423
200 201
200 204
200 202
202 201
201 204
201 203
202 203
416 202
204 203
203 206
416 203
204 205
204 206
204 423
206 205
423 205
205 207
205 209
205 422
206 207
415 206
416 206
207 208
207 209
207 407
415 207
209 208
210 208
211 208
208 405
208 407
209 210
209 422
210 211
210 422
210 212
210 213
210 421
212 211
211 405
211 406
211 397
213 212
398 212
212 397
214 213
421 213
213 398
213 399
215 214
220 214
214 221
214 399
214 421
216 215
218 215
215 220
215 219
216 217
216 218
217 218
217 219
217 226
217 227
217 229
218 219
219 220
219 226
220 221
220 225
220 226
221 222
221 399
221 225
222 223
222 399
222 224
222 225
224 223
232 223
233 223
234 223
235 223
419 223
399 223
223 398
223 372
225 224
224 232
224 228
226 225
227 225
225 228
226 227
227 228
227 229
229 228
228 232
228 231
229 230
229 231
230 231
230 236
232 231
233 231
231 234
231 236
232 233
233 234
234 235
234 236
236 235
235 419
235 237
236 237
238 237
419 237
237 371
237 370
239 238
238 370
238 334
238 369
240 239
368 239
239 369
241 240
245 240
251 240
240 252
240 364
240 365
240 366
240 367
240 368
242 241
243 241
241 245
242 243
242 244
244 243
245 246
245 251
246 247
246 250
246 251
246 420
247 248
420 247
247 249
247 250
248 249
248 259
249 250
259 249
249 256
249 257
249 258
249 255
250 251
250 253
250 254
250 255
251 252
251 253
253 252
296 252
252 297
252 339
252 340
252 364
253 254
253 296
254 255
254 296
254 295
255 256
255 295
255 294
256 257
256 294
256 293
257 258
257 293
257 292
259 258
258 290
258 292
258 289
260 259
259 290
260 261
260 290
261 262
290 261
261 291
261 287
262 263
262 287
262 286
262 285
263 264
263 285
264 265
264 285
264 284
265 266
265 284
265 283
267 266
269 266
266 280
266 283
266 282
268 267
269 267
270 269
269 280
271 270
270 280
270 279
271 272
271 278
271 279
273 272
278 272
277 272
272 276
273 274
273 275
273 276
275 274
274 276
274 327
277 276
276 327
276 326
278 277
277 324
277 314
277 326
279 278
278 325
278 324
280 279
279 281
279 325
280 281
280 282
281 282
325 281
281 316
281 323
320 281
282 283
320 282
283 284
321 283
320 283
284 285
321 284
285 286
285 305
321 285
286 287
286 303
286 304
286 305
287 288
287 291
287 303
289 288
299 288
291 288
288 303
288 302
290 289
289 292
291 289
289 299
290 291
292 293
292 299
293 294
293 299
294 295
294 299
294 298
295 296
295 297
295 298
296 297
297 298
340 297
297 341
297 342
298 299
298 300
298 342
300 299
299 301
299 302
300 301
342 300
300 344
300 343
302 301
301 344
301 345
303 302
330 302
302 345
302 346
302 329
303 304
303 330
304 305
304 330
304 306
305 306
305 307
321 305
307 306
306 329
306 330
308 307
307 329
307 328
321 307
309 308
308 328
321 308
322 308
310 309
317 309
309 328
320 309
322 309
311 310
318 310
310 328
310 317
312 311
319 311
311 328
311 318
312 313
327 312
312 319
312 328
312 381
312 380
312 379
312 386
312 385
312 384
312 383
313 314
326 313
327 313
313 319
314 315
314 324
326 314
314 319
316 315
324 315
315 319
323 315
315 317
315 318
316 317
316 323
320 316
318 317
320 317
319 318
321 320
320 322
321 322
324 323
325 323
324 325
326 327
329 328
378 328
387 328
328 381
330 329
331 329
346 329
329 387
332 331
331 387
331 346
331 378
331 377
333 332
347 332
332 346
332 377
332 388
334 333
348 333
371 333
370 333
355 333
356 333
333 347
333 388
335 334
369 334
354 334
334 355
334 370
335 336
367 335
368 335
369 335
335 354
336 337
366 336
367 336
336 354
336 353
337 338
365 337
366 337
337 353
337 352
338 339
364 338
365 338
338 352
338 351
339 340
364 339
339 351
339 350
340 341
340 350
340 360
342 341
341 360
343 341
363 341
341 361
341 345
342 343
344 343
343 363
344 345
344 363
345 346
345 362
361 345
363 345
345 347
347 346
348 347
362 347
349 348
356 348
357 348
358 348
359 348
362 348
350 349
360 349
359 349
349 362
349 361
350 351
360 350
350 359
351 352
351 358
351 359
352 353
352 357
352 358
353 354
353 356
353 357
354 355
354 356
355 356
356 357
357 358
358 359
360 361
361 362
364 365
365 366
366 367
367 368
368 369
371 370
371 372
419 371
371 388
372 373
419 372
372 388
372 398
373 374
398 373
388 373
373 389
373 396
373 397
374 375
396 374
374 395
374 418
374 391
374 389
376 375
390 375
391 375
392 375
383 375
375 418
414 375
377 376
388 376
389 376
376 390
376 383
378 377
388 377
377 382
377 383
378 379
378 382
378 380
378 381
378 387
380 379
382 379
379 386
381 380
382 383
382 384
382 385
382 386
384 383
385 384
386 385
388 389
389 390
389 391
390 391
393 392
411 392
410 392
392 418
414 392
394 393
410 393
417 393
395 394
417 394
396 395
408 395
395 409
395 417
397 396
400 396
408 396
401 396
398 397
397 400
397 402
397 406
399 398
400 401
400 402
402 401
408 401
403 401
402 403
402 404
402 406
404 403
408 403
403 407
405 404
406 404
404 407
405 406
405 407
408 407
407 413
407 412
407 409
415 407
414 407
408 409
410 409
413 409
417 409
411 410
410 413
410 417
412 411
411 413
414 411
412 413
414 412
415 414
416 414
415 416
422 421
423 422
425 424
426 424
425 426
429 374
429 394
429 395
429 430
429 431
429 418
430 431
430 392
430 418
431 392
431 393
431 394
